c preprocessed version of dimacs_zeroin.i.3-pp, 49 vertices, 651 edges
p td 49 651
0 46
0 11
0 19
0 26
0 27
0 32
0 35
0 38
0 1
0 4
0 16
0 28
0 43
0 12
0 23
0 17
0 18
0 20
0 21
0 22
0 24
0 25
0 37
0 36
0 33
0 31
0 30
0 29
0 42
0 41
0 40
0 39
0 34
0 7
0 6
0 5
0 3
0 2
0 48
0 47
0 45
0 8
1 4
1 16
1 28
1 43
1 12
1 23
1 17
1 18
1 20
1 21
1 22
1 24
1 25
1 29
1 39
1 40
1 41
1 42
1 34
1 7
1 6
1 5
1 3
1 2
1 48
1 47
1 45
1 8
4 16
4 28
4 43
4 17
4 18
4 20
4 21
4 22
4 24
4 25
4 31
4 30
4 29
4 37
4 36
4 33
4 7
4 6
4 5
4 8
16 28
16 43
16 17
16 18
16 20
16 21
16 22
16 24
16 25
16 33
16 31
16 30
16 29
16 37
16 36
28 43
28 36
28 33
28 31
28 30
28 29
28 37
39 42
39 41
39 40
40 42
40 41
41 42
12 23
12 17
12 18
12 20
12 21
12 22
12 24
12 25
12 37
12 36
12 33
12 31
12 30
12 29
12 34
12 7
12 6
12 5
12 3
12 2
12 48
12 47
12 45
12 8
23 17
23 18
23 20
23 21
23 22
23 24
23 25
23 30
23 29
23 37
23 36
23 33
23 31
23 39
23 40
23 41
23 42
23 34
23 7
23 6
23 5
23 3
23 2
23 48
23 47
23 45
23 8
34 44
34 45
34 47
34 48
34 2
34 3
34 5
34 6
34 7
34 8
34 9
34 10
34 13
34 14
34 15
34 29
34 30
34 31
34 33
34 36
34 37
34 39
34 40
34 41
34 42
34 24
34 25
34 18
34 17
34 22
34 21
34 20
44 45
44 47
44 48
44 2
44 3
44 5
44 6
44 7
44 8
44 9
44 10
44 13
44 14
44 15
44 29
44 30
44 31
44 33
44 36
44 37
44 39
44 40
44 41
44 42
45 47
45 48
45 2
45 3
45 5
45 6
45 7
45 8
45 9
45 10
45 13
45 14
45 15
45 29
45 30
45 31
45 33
45 36
45 37
45 39
45 40
45 41
45 42
45 18
46 11
46 19
46 26
46 27
46 32
46 35
46 38
46 4
46 16
46 28
46 43
46 17
46 18
46 20
46 21
46 22
46 24
46 25
46 37
46 36
46 33
46 31
46 30
46 29
46 42
46 41
46 40
46 39
46 7
46 6
46 5
46 3
46 2
46 48
46 47
46 8
47 48
47 2
47 3
47 5
47 6
47 7
47 8
47 9
47 10
47 13
47 14
47 15
47 29
47 30
47 31
47 33
47 36
47 37
47 39
47 40
47 41
47 42
47 18
48 2
48 3
48 5
48 6
48 7
48 8
48 9
48 10
48 13
48 14
48 15
48 29
48 30
48 31
48 33
48 36
48 37
48 39
48 40
48 41
48 42
48 18
2 3
2 5
2 6
2 7
2 8
2 9
2 10
2 13
2 14
2 15
2 29
2 30
2 31
2 33
2 36
2 37
2 39
2 40
2 41
2 42
2 18
3 5
3 6
3 7
3 8
3 9
3 10
3 13
3 14
3 15
3 29
3 30
3 31
3 33
3 36
3 37
3 39
3 40
3 41
3 42
3 18
5 6
5 7
5 8
5 9
5 10
5 13
5 14
5 15
5 29
5 30
5 31
5 33
5 36
5 37
5 39
5 40
5 41
5 42
5 18
6 7
6 8
6 9
6 10
6 13
6 14
6 15
6 29
6 30
6 31
6 33
6 36
6 37
6 39
6 40
6 41
6 42
6 18
7 8
7 9
7 10
7 13
7 14
7 15
7 29
7 30
7 31
7 33
7 36
7 37
7 39
7 40
7 41
7 42
7 18
8 9
8 10
8 13
8 14
8 15
8 29
8 30
8 31
8 33
8 36
8 37
8 39
8 40
8 41
8 42
8 25
8 18
8 17
8 24
8 22
8 21
8 20
9 10
9 13
9 14
9 15
9 29
9 30
9 31
9 33
9 36
9 37
9 39
9 40
9 41
9 42
9 25
9 18
9 17
9 24
9 22
9 21
9 20
10 13
10 14
10 15
10 29
10 30
10 31
10 33
10 36
10 37
10 39
10 40
10 41
10 42
10 25
10 18
10 17
10 24
10 22
10 21
10 20
11 19
11 26
11 27
11 32
11 35
11 38
11 16
11 28
11 43
11 17
11 18
11 20
11 21
11 22
11 24
11 25
11 37
11 36
11 33
11 31
11 30
11 29
13 14
13 15
13 29
13 30
13 31
13 33
13 36
13 37
13 39
13 40
13 41
13 42
13 25
13 18
13 17
13 24
13 22
13 21
13 20
14 15
14 29
14 30
14 31
14 33
14 36
14 37
14 39
14 40
14 41
14 42
14 25
14 18
14 17
14 24
14 22
14 21
14 20
15 29
15 30
15 31
15 33
15 36
15 37
15 39
15 40
15 41
15 42
15 25
15 18
15 17
15 24
15 22
15 21
15 20
17 25
17 18
17 24
17 22
17 21
17 20
18 25
18 24
18 22
18 21
18 20
19 26
19 27
19 32
19 35
19 38
19 28
19 43
19 20
19 21
19 22
19 24
19 25
20 22
20 21
20 25
20 24
21 25
21 22
21 24
22 25
22 24
24 25
26 27
26 32
26 35
26 38
26 28
26 43
27 32
27 35
27 38
27 28
27 43
27 42
29 37
29 36
29 33
29 31
29 30
29 42
29 41
29 40
29 39
30 37
30 36
30 33
30 31
30 42
30 41
30 40
30 39
31 37
31 36
31 33
31 42
31 41
31 40
31 39
32 35
32 38
32 43
32 41
32 42
33 37
33 36
35 38
35 43
35 40
35 41
35 42
36 37
38 43
38 39
38 40
38 41
38 42
